28
10
0 1 29 57 85 113 141 169 197 225
10
0 2 30 58 86 114 142 170 198 226
10
0 3 31 59 87 115 143 171 199 227
10
0 4 32 60 88 116 144 172 200 228
10
0 5 33 61 89 117 145 173 201 229
10
0 6 34 62 90 118 146 174 202 230
10
0 7 35 63 91 119 147 175 203 231
10
0 8 36 64 92 120 148 176 204 232
10
0 9 37 65 93 121 149 177 205 233
10
0 10 38 66 94 122 150 178 206 234
10
0 11 39 67 95 123 151 179 207 235
10
0 12 40 68 96 124 152 180 208 236
10
0 13 41 69 97 125 153 181 209 237
10
0 14 42 70 98 126 154 182 210 238
10
0 15 43 71 99 127 155 183 211 239
10
0 16 44 72 100 128 156 184 212 240
10
0 17 45 73 101 129 157 185 213 241
10
0 18 46 74 102 130 158 186 214 242
10
0 19 47 75 103 131 159 187 215 243
10
0 20 48 76 104 132 160 188 216 244
10
0 21 49 77 105 133 161 189 217 245
10
0 22 50 78 106 134 162 190 218 246
10
0 23 51 79 107 135 163 191 219 247
10
0 24 52 80 108 136 164 192 220 248
10
0 25 53 81 109 137 165 193 221 249
10
0 26 54 82 110 138 166 194 222 250
9
0 27 55 83 111 139 167 195 223
9
0 28 56 84 112 140 168 196 224
